103150
6,79,15,69,25,42,55,23,12,3,43,57,34,49,47,60,81,72,51,56,17,77,9,20,67,76,26,36,66,71,54,46,45,80,62,70,14,29,10,1,64,73,13,37,18,21,48,24,31,19,5,22,44,75,82,32,58,74,40,11,33,7,27,16,38,2,30,35,28,8,83,53,59,68,65,50,4,63,39,52,41,78,61,6